1 0 0
2 -12 -6
3 -15 -5
4 -1 -18
5 2 -21
6 -1 -17
7 -9 -12
8 2 -22
9 1 -21
10 7 -25
11 -7 -17
12 -11 -5
13 -14 -9
14 -14 -8
15 -11 -2
16 -14 -5
17 -15 -9
18 -15 -8
19 -9 -6
20 -14 -4
21 3 6
22 5 9
23 5 10
24 2 8
25 1 9
26 1 10
27 2 9
28 6 14
29 5 12
30 3 7
31 4 8
32 -6 1
33 -6 2
34 -8 -2
35 -7 2
36 -7 -3
37 -7 -2
38 -20 12
39 -20 13
40 -12 10
41 -20 15
42 -6 8
43 2 21
44 2 22
45 1 21
46 -1 24
47 1 22
48 -2 20
49 -2 21
50 -4 18
51 -4 19
52 -5 18
53 -5 26
54 1 23
55 -6 5
56 -6 6
57 -9 6
58 -9 7
59 -12 5
60 -12 6
61 -11 3
62 -11 4
63 -14 4
64 -14 5
65 -15 4
66 -15 5
67 -16 7
68 -16 8
69 -15 10
70 -20 10
71 -5 19
72 -9 -11
